156784
25,13,28,72,45,35,79,66,75,65,70,20,36,0,9,63,44,53,12,17,4,21,81,8,57,55,71,50,2,56,42,54,22,11,80,46,33,48,59,32,15,6,26,37,1,29,5,60,14,41,24,77,68,78,62,82,49,64,23,18,47,30,3,51,38,40,52,67,58,7,34,27,10,74,43,31,39,73,76,16,19,69,61